* #variable= 5 #constraint= 6
min: +1 x1 +1 x2 +1 x3 ;
****x4 = x3 and x1****
-1 x3 -1 x1 +2 x4 >= -1;
+1 x3 +1 x1 -2 x4 >= 0;

+1 x4  >= 1;
****x5 = x2 and x1****
-1 x2 -1 x1 +2 x5 >= -1;
+1 x2 +1 x1 -2 x5 >= 0;

+1 x5  >= 1;
